
p cnf 20 246
-1 21 0
-5 -24 0
-2 22 0
-21 22 0
-2 -21 0
-3 23 0
-22 23 0
-3 -22 0
-4 24 0
-23 24 0
-4 -23 0
-2 25 0
-6 -28 0
-3 26 0
-25 26 0
-3 -25 0
-4 27 0
-26 27 0
-4 -26 0
-5 28 0
-27 28 0
-5 -27 0
-3 29 0
-7 -32 0
-4 30 0
-29 30 0
-4 -29 0
-5 31 0
-30 31 0
-5 -30 0
-6 32 0
-31 32 0
-6 -31 0
-4 33 0
-8 -36 0
-5 34 0
-33 34 0
-5 -33 0
-6 35 0
-34 35 0
-6 -34 0
-7 36 0
-35 36 0
-7 -35 0
-5 37 0
-9 -40 0
-6 38 0
-37 38 0
-6 -37 0
-7 39 0
-38 39 0
-7 -38 0
-8 40 0
-39 40 0
-8 -39 0
-6 41 0
-10 -44 0
-7 42 0
-41 42 0
-7 -41 0
-8 43 0
-42 43 0
-8 -42 0
-9 44 0
-43 44 0
-9 -43 0
-7 45 0
-11 -48 0
-8 46 0
-45 46 0
-8 -45 0
-9 47 0
-46 47 0
-9 -46 0
-10 48 0
-47 48 0
-10 -47 0
-8 49 0
-12 -52 0
-9 50 0
-49 50 0
-9 -49 0
-10 51 0
-50 51 0
-10 -50 0
-11 52 0
-51 52 0
-11 -51 0
-9 53 0
-13 -56 0
-10 54 0
-53 54 0
-10 -53 0
-11 55 0
-54 55 0
-11 -54 0
-12 56 0
-55 56 0
-12 -55 0
-10 57 0
-14 -60 0
-11 58 0
-57 58 0
-11 -57 0
-12 59 0
-58 59 0
-12 -58 0
-13 60 0
-59 60 0
-13 -59 0
-11 61 0
-15 -64 0
-12 62 0
-61 62 0
-12 -61 0
-13 63 0
-62 63 0
-13 -62 0
-14 64 0
-63 64 0
-14 -63 0
-12 65 0
-16 -68 0
-13 66 0
-65 66 0
-13 -65 0
-14 67 0
-66 67 0
-14 -66 0
-15 68 0
-67 68 0
-15 -67 0
-13 69 0
-17 -72 0
-14 70 0
-69 70 0
-14 -69 0
-15 71 0
-70 71 0
-15 -70 0
-16 72 0
-71 72 0
-16 -71 0
-14 73 0
-18 -76 0
-15 74 0
-73 74 0
-15 -73 0
-16 75 0
-74 75 0
-16 -74 0
-17 76 0
-75 76 0
-17 -75 0
-15 77 0
-19 -80 0
-16 78 0
-77 78 0
-16 -77 0
-17 79 0
-78 79 0
-17 -78 0
-18 80 0
-79 80 0
-18 -79 0
-16 81 0
-20 -84 0
-17 82 0
-81 82 0
-17 -81 0
-18 83 0
-82 83 0
-18 -82 0
-19 84 0
-83 84 0
-19 -83 0
-5 87 0
-4 87 0
-87 5 4 0
-87 86 0
-3 86 0
-86 87 3 0
-86 85 0
-2 85 0
-85 86 2 0
-10 90 0
-9 90 0
-90 10 9 0
-90 89 0
-8 89 0
-89 90 8 0
-89 88 0
-7 88 0
-88 89 7 0
-15 93 0
-14 93 0
-93 15 14 0
-93 92 0
-13 92 0
-92 93 13 0
-92 91 0
-12 91 0
-91 92 12 0
-6 94 0
-7 94 0
-94 6 7 0
-94 95 0
-8 95 0
-95 94 8 0
-95 96 0
-9 96 0
-96 95 9 0
-11 97 0
-12 97 0
-97 11 12 0
-97 98 0
-13 98 0
-98 97 13 0
-98 99 0
-14 99 0
-99 98 14 0
-16 100 0
-17 100 0
-100 16 17 0
-100 101 0
-18 101 0
-101 100 18 0
-101 102 0
-19 102 0
-102 101 19 0
1 85 0
85 6 0
86 94 0
87 95 0
5 96 0
6 88 96 0
88 11 0
89 97 0
90 98 0
10 99 0
11 91 99 0
91 16 0
92 100 0
93 101 0
15 102 0
16 102 0
